Set parameter Username
Set parameter Threads to value 1
Academic license - for non-commercial use only - expires 2022-07-11
Set parameter TimeLimit to value 300
Gurobi Optimizer version 9.5.1 build v9.5.1rc2 (linux64)
Thread count: 2 physical cores, 4 logical processors, using up to 1 threads
Optimize a model with 1700 rows, 840 columns and 6478 nonzeros
Model fingerprint: 0x4889be63
Variable types: 20 continuous, 820 integer (800 binary)
Coefficient statistics:
  Matrix range     [2e-01, 2e+03]
  Objective range  [1e-03, 3e-01]
  Bounds range     [1e+00, 1e+00]
  RHS range        [1e+00, 2e+03]

---------------------------------------------------------------------------
Multi-objectives: starting optimization with 1 objectives ... 
---------------------------------------------------------------------------
---------------------------------------------------------------------------

Multi-objectives: optimize objective 1 (min avg power cons) ...
---------------------------------------------------------------------------

Optimize a model with 1700 rows, 840 columns and 6478 nonzeros
Model fingerprint: 0x44606adb
Variable types: 20 continuous, 820 integer (800 binary)
Coefficient statistics:
  Matrix range     [2e-01, 2e+03]
  Objective range  [1e-03, 3e-01]
  Bounds range     [1e+00, 1e+00]
  RHS range        [1e+00, 2e+03]
Presolve removed 1168 rows and 517 columns
Presolve time: 0.06s
Presolved: 532 rows, 323 columns, 3191 nonzeros
Variable types: 17 continuous, 306 integer (289 binary)

Root relaxation: objective 1.850021e+00, 176 iterations, 0.00 seconds (0.00 work units)

    Nodes    |    Current Node    |     Objective Bounds      |     Work
 Expl Unexpl |  Obj  Depth IntInf | Incumbent    BestBd   Gap | It/Node Time

     0     0    1.85002    0   58          -    1.85002      -     -    0s
H    0     0                       3.4482425    1.85002  46.3%     -    0s
     0     0    2.13833    0   54    3.44824    2.13833  38.0%     -    0s
     0     0    2.16190    0   51    3.44824    2.16190  37.3%     -    0s
     0     0    2.29632    0   52    3.44824    2.29632  33.4%     -    0s
H    0     0                       3.4432585    2.29632  33.3%     -    0s
     0     0    2.30893    0   57    3.44326    2.30893  32.9%     -    0s
     0     0    2.31112    0   58    3.44326    2.31112  32.9%     -    0s
     0     0    2.31112    0   58    3.44326    2.31112  32.9%     -    0s
     0     0    2.34459    0   66    3.44326    2.34459  31.9%     -    0s
     0     0    2.34563    0   76    3.44326    2.34563  31.9%     -    0s
     0     0    2.34659    0   69    3.44326    2.34659  31.8%     -    0s
     0     0    2.36209    0   72    3.44326    2.36209  31.4%     -    0s
     0     0    2.37073    0   62    3.44326    2.37073  31.1%     -    0s
     0     0    2.37076    0   62    3.44326    2.37076  31.1%     -    0s
     0     0    2.41028    0   79    3.44326    2.41028  30.0%     -    0s
H    0     0                       3.4409649    2.41028  30.0%     -    0s
     0     0    2.41443    0   76    3.44096    2.41443  29.8%     -    0s
     0     0    2.41512    0   77    3.44096    2.41512  29.8%     -    0s
     0     0    2.41550    0   76    3.44096    2.41550  29.8%     -    0s
     0     0    2.41561    0   77    3.44096    2.41561  29.8%     -    0s
     0     0    2.42142    0   85    3.44096    2.42142  29.6%     -    0s
     0     0    2.42349    0   86    3.44096    2.42349  29.6%     -    0s
     0     0    2.42371    0   87    3.44096    2.42371  29.6%     -    0s
     0     0    2.42386    0   88    3.44096    2.42386  29.6%     -    0s
     0     0    2.42707    0   78    3.44096    2.42707  29.5%     -    0s
     0     0    2.42872    0   96    3.44096    2.42872  29.4%     -    0s
     0     0    2.42948    0   95    3.44096    2.42948  29.4%     -    0s
     0     0    2.43016    0   92    3.44096    2.43016  29.4%     -    0s
     0     0    2.43022    0   96    3.44096    2.43022  29.4%     -    0s
     0     0    2.43373    0   89    3.44096    2.43373  29.3%     -    0s
     0     0    2.43506    0   91    3.44096    2.43506  29.2%     -    0s
     0     0    2.43560    0   89    3.44096    2.43560  29.2%     -    0s
     0     0    2.43636    0  101    3.44096    2.43636  29.2%     -    0s
     0     0    2.43639    0  102    3.44096    2.43639  29.2%     -    0s
     0     0    2.43922    0  105    3.44096    2.43922  29.1%     -    0s
H    0     0                       3.4166495    2.43922  28.6%     -    0s
     0     0    2.44016    0  105    3.41665    2.44016  28.6%     -    0s
     0     0    2.44023    0  105    3.41665    2.44023  28.6%     -    0s
     0     0    2.44776    0   97    3.41665    2.44776  28.4%     -    0s
H    0     0                       3.4147276    2.44776  28.3%     -    0s
     0     0    2.45012    0   76    3.41473    2.45012  28.2%     -    0s
     0     0    2.45070    0   81    3.41473    2.45070  28.2%     -    0s
     0     0    2.45093    0   82    3.41473    2.45093  28.2%     -    0s
     0     0    2.45214    0   75    3.41473    2.45214  28.2%     -    0s
     0     0    2.45242    0   78    3.41473    2.45242  28.2%     -    0s
     0     0    2.45440    0   75    3.41473    2.45440  28.1%     -    0s
     0     0    2.45440    0   75    3.41473    2.45440  28.1%     -    0s
H    0     0                       3.3834677    2.45443  27.5%     -    0s
H    0     0                       3.2885025    2.45443  25.4%     -    0s
     0     2    2.45466    0   73    3.28850    2.45466  25.4%     -    0s
H   78    34                       3.2854404    2.47923  24.5%  31.3    0s
H  131    53                       3.2840489    2.49622  24.0%  29.2    0s
*  370   147              43       3.2792341    2.53759  22.6%  32.3    1s
H  555   217                       3.2663424    2.57767  21.1%  34.4    1s
H  728   284                       3.2182880    2.60854  18.9%  37.0    1s
H  744   287                       3.2174453    2.61440  18.7%  37.5    1s
H 1487   530                       3.2137278    2.67526  16.8%  42.7    4s
  1613   550    2.92643   19   45    3.21373    2.69247  16.2%  42.5    5s
H 3185   963                       3.2099205    2.82683  11.9%  40.7    8s
* 3480  1043              55       3.2073307    2.84046  11.4%  40.7    8s
H 3932  1199                       3.1952821    2.86376  10.4%  41.1    9s
  4129  1251    2.94922   31   61    3.19528    2.87415  10.1%  41.2   10s
  6598  1870    2.94403   28   58    3.19528    2.93428  8.17%  42.0   15s
  9211  2365    3.06510   25   54    3.19528    2.98010  6.73%  41.6   20s
* 9456  2373              36       3.1894733    2.98347  6.46%  41.5   20s
 10202  2411     cutoff   22         3.18947    2.99562  6.08%  41.4   26s
H10457  2364                       3.1760153    2.99834  5.59%  41.4   26s
*10751  2023              44       3.1382452    3.00433  4.27%  41.3   27s
 12131  1908    3.13137   32   37    3.13825    3.02911  3.48%  41.7   30s
 15041   929     cutoff   33         3.13825    3.08843  1.59%  41.6   35s
*16028    99              36       3.1227554    3.11688  0.19%  40.7   36s

Cutting planes:
  Learned: 2
  Cover: 56
  Implied bound: 87
  Projected implied bound: 22
  Clique: 2
  MIR: 150
  StrongCG: 1
  Flow cover: 172
  GUB cover: 15
  Inf proof: 6
  RLT: 6
  Relax-and-lift: 219

Explored 16124 nodes (654892 simplex iterations) in 36.16 seconds (29.50 work units)
Thread count was 1 (of 4 available processors)

Solution count 10: 3.12276 3.13825 3.17602 ... 3.21829

Optimal solution found (tolerance 1.00e-04)
Best objective 3.122755415208e+00, best bound 3.122462083735e+00, gap 0.0094%

---------------------------------------------------------------------------
Multi-objectives: solved in 36.16 seconds (29.50 work units), solution count 10

